AES/1_2_8/ssaes_r1-20_c2_rw1_e8_f0_k1-20_aes_1base_box_aes_mc_bidirectional/ExperimentMinisat_r2_k3cnf_2011-12-02-112412/Result
WARNING: for repeatability, setting FPU to use double precision
============================[ Problem Statistics ]=============================
|                                                                             |
|  Number of variables:           208                                         |
|  Number of clauses:           26836                                         |
|  Parse time:                   0.01 s                                       |
|  Eliminated clauses:           0.00 Mb                                      |
|  Simplification time:          0.88 s                                       |
|                                                                             |
=============================[ Search Statistics ]==============================
| Conflicts  |          ORIGINAL         |          LEARNT          | Progress |
|            |    Vars  Clauses Literals |    Limit  Clauses Lit/Cl |          |
================================================================================
|        100 |     112    26612   181288 |     9757      100     17 | 23.082 % |
|        250 |     112    26612   181288 |    10733      250     18 | 23.079 % |
|        475 |     112    26612   181288 |    11806      475     16 | 23.079 % |
|        812 |     112    26612   181288 |    12987      812     15 | 23.079 % |
|       1318 |     112    26612   181288 |    14286     1318     13 | 23.079 % |
|       2077 |     112    26612   181288 |    15714     2077     13 | 23.079 % |
|       3216 |     112    26612   181288 |    17286     3216     12 | 23.079 % |
|       4924 |     112    26612   181288 |    19015     4924     12 | 23.079 % |
|       7486 |     112    26612   181288 |    20916     7486     12 | 23.079 % |
===============================================================================
restarts              : 35
conflicts             : 8448           (5530 /sec)
decisions             : 8929           (0.00 % random) (5844 /sec)
propagations          : 241650         (158172 /sec)
conflict literals     : 99743          (27.94 % deleted)
Memory used           : 10.00 MB
CPU time              : 1.52777 s

SATISFIABLE
